c 
c G(n,p) graph
c graph gen seed     : 401736
c number of vertices : 80
c max number of edges: 3160
c edge probability   : 0.200000
c data structure     : sparse
c
c           Graph Stats
c number of vertices  : 80
c nonisolated vertices: 80
c number of edges     : 639
c edge density        : 0.202215
c max degree          : 26
c avg degree          : 15.97
c min degree          : 9
p col 80 639
e 1 78
e 1 76
e 1 74
e 1 71
e 1 70
e 1 68
e 1 63
e 1 60
e 1 55
e 1 54
e 1 51
e 1 39
e 1 38
e 1 33
e 1 30
e 1 28
e 1 26
e 1 13
e 1 7
e 1 6
e 1 3
e 2 72
e 2 71
e 2 69
e 2 60
e 2 59
e 2 55
e 2 52
e 2 49
e 2 48
e 2 47
e 2 37
e 2 36
e 2 34
e 2 32
e 2 25
e 2 24
e 2 20
e 2 10
e 2 8
e 3 77
e 3 75
e 3 67
e 3 65
e 3 62
e 3 60
e 3 59
e 3 52
e 3 44
e 3 43
e 3 42
e 3 36
e 3 33
e 3 32
e 3 28
e 3 26
e 3 23
e 3 15
e 3 14
e 3 10
e 3 7
e 4 72
e 4 70
e 4 57
e 4 56
e 4 50
e 4 47
e 4 36
e 4 24
e 4 16
e 4 13
e 5 80
e 5 78
e 5 75
e 5 60
e 5 57
e 5 56
e 5 54
e 5 52
e 5 48
e 5 44
e 5 43
e 5 29
e 5 27
e 5 20
e 5 18
e 5 6
e 6 77
e 6 76
e 6 69
e 6 65
e 6 63
e 6 55
e 6 53
e 6 42
e 6 41
e 6 34
e 6 33
e 6 31
e 6 19
e 7 77
e 7 68
e 7 65
e 7 59
e 7 55
e 7 52
e 7 50
e 7 49
e 7 43
e 7 40
e 7 30
e 7 23
e 7 14
e 7 12
e 7 10
e 8 79
e 8 78
e 8 75
e 8 64
e 8 59
e 8 53
e 8 46
e 8 44
e 8 39
e 8 28
e 8 25
e 8 21
e 8 20
e 8 17
e 8 15
e 8 13
e 9 78
e 9 75
e 9 74
e 9 71
e 9 64
e 9 56
e 9 55
e 9 50
e 9 48
e 9 44
e 9 43
e 9 41
e 9 28
e 9 25
e 9 24
e 9 12
e 9 10
e 10 80
e 10 69
e 10 68
e 10 65
e 10 64
e 10 61
e 10 59
e 10 38
e 10 36
e 10 32
e 10 16
e 10 14
e 11 77
e 11 73
e 11 72
e 11 71
e 11 60
e 11 58
e 11 56
e 11 45
e 11 39
e 11 38
e 11 33
e 11 30
e 12 79
e 12 78
e 12 77
e 12 61
e 12 57
e 12 52
e 12 47
e 12 42
e 12 40
e 12 37
e 12 28
e 12 18
e 12 16
e 12 15
e 12 14
e 12 13
e 13 63
e 13 61
e 13 58
e 13 56
e 13 55
e 13 54
e 13 52
e 13 45
e 13 44
e 13 42
e 13 38
e 13 37
e 13 32
e 13 31
e 13 29
e 13 25
e 13 24
e 13 21
e 13 17
e 14 71
e 14 69
e 14 65
e 14 64
e 14 53
e 14 49
e 14 43
e 14 39
e 14 38
e 14 32
e 14 30
e 14 29
e 14 25
e 14 23
e 15 75
e 15 61
e 15 59
e 15 44
e 15 42
e 15 37
e 15 29
e 15 26
e 15 23
e 15 22
e 15 16
e 16 80
e 16 78
e 16 73
e 16 71
e 16 65
e 16 55
e 16 54
e 16 52
e 16 51
e 16 46
e 16 39
e 16 34
e 16 33
e 16 31
e 16 28
e 17 77
e 17 76
e 17 71
e 17 68
e 17 65
e 17 61
e 17 55
e 17 53
e 17 49
e 17 41
e 17 40
e 17 35
e 17 34
e 17 31
e 17 28
e 17 25
e 17 19
e 18 73
e 18 70
e 18 69
e 18 66
e 18 64
e 18 52
e 18 51
e 18 32
e 18 31
e 18 29
e 18 23
e 18 22
e 18 19
e 19 80
e 19 76
e 19 64
e 19 50
e 19 44
e 19 41
e 19 27
e 19 25
e 19 21
e 19 20
e 20 79
e 20 68
e 20 54
e 20 40
e 20 37
e 20 35
e 20 31
e 20 25
e 21 77
e 21 76
e 21 75
e 21 70
e 21 65
e 21 59
e 21 51
e 21 49
e 21 46
e 21 37
e 21 29
e 21 28
e 21 26
e 22 75
e 22 74
e 22 72
e 22 69
e 22 64
e 22 58
e 22 57
e 22 51
e 22 39
e 22 25
e 23 78
e 23 62
e 23 54
e 23 51
e 23 41
e 23 36
e 23 27
e 24 67
e 24 65
e 24 64
e 24 62
e 24 60
e 24 59
e 24 56
e 24 55
e 24 51
e 24 41
e 24 40
e 24 31
e 24 29
e 25 80
e 25 72
e 25 71
e 25 63
e 25 62
e 25 60
e 25 59
e 25 58
e 25 55
e 25 50
e 25 42
e 25 27
e 26 79
e 26 76
e 26 66
e 26 64
e 26 58
e 26 57
e 26 44
e 26 43
e 26 36
e 26 32
e 26 29
e 27 79
e 27 65
e 27 60
e 27 59
e 27 57
e 27 54
e 27 53
e 27 51
e 27 46
e 27 41
e 27 38
e 27 37
e 27 35
e 27 31
e 28 79
e 28 72
e 28 54
e 28 50
e 28 48
e 28 47
e 28 36
e 28 31
e 29 80
e 29 74
e 29 71
e 29 70
e 29 67
e 29 65
e 29 61
e 29 59
e 29 49
e 29 43
e 29 42
e 29 40
e 29 37
e 29 35
e 29 33
e 30 78
e 30 73
e 30 59
e 30 50
e 30 47
e 30 43
e 31 77
e 31 69
e 31 67
e 31 66
e 31 63
e 31 61
e 31 59
e 31 55
e 31 53
e 31 50
e 31 48
e 31 45
e 31 35
e 32 79
e 32 72
e 32 55
e 32 45
e 32 38
e 33 67
e 33 65
e 33 43
e 33 42
e 33 40
e 33 38
e 34 77
e 34 70
e 34 68
e 34 54
e 34 51
e 34 48
e 34 47
e 34 46
e 34 40
e 34 38
e 34 37
e 35 80
e 35 65
e 35 63
e 35 62
e 35 60
e 35 57
e 35 55
e 35 44
e 35 42
e 35 40
e 35 38
e 35 36
e 36 79
e 36 73
e 36 64
e 36 62
e 36 60
e 36 54
e 36 49
e 37 72
e 37 70
e 37 67
e 37 65
e 37 64
e 37 48
e 38 74
e 38 69
e 38 63
e 38 59
e 38 57
e 38 46
e 39 78
e 39 68
e 39 60
e 39 51
e 39 44
e 39 42
e 39 41
e 40 79
e 40 70
e 40 69
e 40 66
e 40 61
e 40 59
e 40 58
e 40 56
e 40 49
e 41 77
e 41 71
e 41 67
e 41 65
e 41 44
e 42 80
e 42 68
e 42 65
e 42 63
e 42 58
e 42 55
e 42 52
e 42 50
e 42 48
e 42 47
e 42 45
e 43 70
e 43 67
e 43 64
e 43 63
e 43 62
e 43 49
e 43 48
e 44 79
e 44 78
e 44 57
e 44 52
e 44 51
e 45 79
e 45 74
e 45 71
e 45 63
e 45 57
e 45 56
e 45 54
e 46 79
e 46 78
e 46 64
e 46 59
e 46 56
e 46 55
e 46 54
e 46 50
e 46 49
e 47 59
e 47 54
e 47 53
e 48 79
e 48 66
e 48 65
e 48 64
e 48 58
e 48 52
e 48 50
e 48 49
e 49 80
e 49 77
e 49 73
e 49 63
e 50 79
e 50 71
e 50 68
e 50 66
e 50 64
e 50 61
e 50 57
e 50 52
e 50 51
e 51 76
e 51 71
e 51 66
e 51 64
e 51 63
e 51 61
e 51 59
e 51 56
e 52 79
e 52 69
e 52 66
e 52 63
e 52 61
e 52 55
e 53 80
e 53 76
e 53 69
e 53 62
e 53 58
e 53 57
e 54 80
e 54 77
e 54 76
e 54 70
e 54 56
e 55 76
e 55 71
e 55 65
e 55 63
e 56 78
e 56 77
e 56 76
e 56 72
e 56 69
e 56 59
e 56 57
e 57 79
e 57 75
e 57 68
e 57 60
e 58 73
e 58 62
e 59 79
e 59 78
e 59 75
e 59 71
e 59 66
e 59 65
e 59 62
e 60 80
e 60 79
e 60 76
e 60 69
e 60 65
e 60 64
e 60 61
e 61 79
e 61 72
e 61 69
e 61 67
e 61 65
e 62 77
e 63 74
e 63 69
e 64 65
e 65 80
e 65 79
e 65 68
e 66 67
e 67 80
e 67 78
e 67 75
e 67 73
e 67 71
e 67 69
e 68 79
e 68 78
e 68 72
e 69 73
e 70 76
e 72 80
e 72 74
e 74 75
e 76 79
e 78 80
